p wcnf 178 267 268 
1 114 -37 0 
1 -62 25 0 
1 126 67 0 
1 -74 174 0 
1 62 -17 0 
1 100 163 0 
1 -90 -3 0 
1 -87 -50 0 
1 37 152 0 
1 40 -172 0 
1 19 51 0 
1 -66 44 0 
1 118 38 0 
1 38 9 0 
1 79 139 0 
1 49 103 0 
1 -119 24 0 
1 6 21 0 
1 -121 -26 0 
1 51 84 0 
1 92 109 0 
1 158 -32 0 
1 139 -74 0 
1 160 64 0 
1 -118 -88 0 
1 -117 -128 0 
1 -70 173 0 
1 113 68 0 
1 5 64 0 
1 -73 62 0 
1 -28 -174 0 
1 8 -16 0 
1 66 21 0 
1 -132 -35 0 
1 -27 -51 0 
1 76 -81 0 
1 165 -75 0 
1 -147 -8 0 
1 -138 32 0 
1 -176 9 0 
1 -101 89 0 
1 -156 -45 0 
1 98 163 0 
1 150 21 0 
1 144 30 0 
1 15 116 0 
1 107 -76 0 
1 -108 99 0 
1 -43 158 0 
1 85 -148 0 
1 -87 74 0 
1 164 -129 0 
1 82 19 0 
1 -4 15 0 
1 172 -4 0 
1 -25 -12 0 
1 -168 26 0 
1 -153 148 0 
1 -139 -168 0 
1 -77 67 0 
1 -16 72 0 
1 -124 -7 0 
1 -15 -176 0 
1 118 54 0 
1 -146 -56 0 
1 -21 50 0 
1 12 68 0 
1 -79 -176 0 
1 25 26 0 
1 119 13 0 
1 10 -70 0 
1 -112 -80 0 
1 -7 -170 0 
1 -125 15 0 
1 119 88 0 
1 -29 40 0 
1 74 178 0 
1 -94 84 0 
1 -86 -142 0 
1 34 -3 0 
1 -23 -19 0 
1 84 -86 0 
1 -112 61 0 
1 5 -136 0 
1 154 96 0 
1 119 141 0 
1 -153 -170 0 
1 -6 177 0 
1 54 -40 0 
1 -89 81 0 
1 -113 140 0 
1 -85 60 0 
1 86 4 0 
1 128 100 0 
1 2 -149 0 
1 -167 26 0 
1 24 70 0 
1 -8 -47 0 
1 146 46 0 
1 -167 12 0 
1 -129 -110 0 
1 46 -102 0 
1 124 -102 0 
1 36 -126 0 
1 -170 -8 0 
1 -132 -55 0 
1 -83 139 0 
1 -81 -44 0 
1 -175 -105 0 
1 -64 47 0 
1 -80 -21 0 
1 126 53 0 
1 28 -169 0 
1 51 177 0 
1 126 29 0 
1 -62 -60 0 
1 173 -77 0 
1 144 -65 0 
1 154 62 0 
1 90 18 0 
1 -162 29 0 
1 7 12 0 
1 161 -51 0 
1 147 156 0 
1 -35 49 0 
1 79 81 0 
1 68 -55 0 
1 -132 168 0 
1 -116 -76 0 
1 148 -132 0 
1 46 135 0 
1 -145 81 0 
1 -145 -125 0 
1 33 -133 0 
1 75 107 0 
1 -123 166 0 
1 -100 30 0 
1 98 91 0 
1 75 90 0 
1 4 126 0 
1 -130 -80 0 
1 -109 -81 0 
1 168 -79 0 
1 16 26 0 
1 68 49 0 
1 -7 -115 0 
1 42 -178 0 
1 -51 11 0 
1 51 -91 0 
1 -11 -147 0 
1 -135 -52 0 
1 152 -35 0 
1 23 -143 0 
1 68 100 0 
1 -131 124 0 
1 3 175 0 
1 -18 14 0 
1 174 31 0 
1 72 -167 0 
1 -14 -51 0 
1 -143 -104 0 
1 156 85 0 
1 -19 -132 0 
1 -167 -8 0 
1 -167 64 0 
1 -98 -169 0 
1 -4 -20 0 
1 -94 91 0 
1 133 -104 0 
1 38 98 0 
1 -142 127 0 
1 -24 -174 0 
1 9 136 0 
1 30 160 0 
1 -69 98 0 
1 32 -78 0 
1 129 60 0 
1 -42 -146 0 
1 151 -28 0 
1 116 165 0 
1 -153 -1 0 
1 -103 64 0 
1 98 8 0 
1 -24 -103 0 
1 -38 85 0 
1 -46 62 0 
1 47 3 0 
1 131 -144 0 
1 65 -126 0 
1 164 4 0 
1 70 161 0 
1 53 9 0 
1 -168 124 0 
1 49 -164 0 
1 -156 124 0 
1 4 -49 0 
1 118 17 0 
1 128 134 0 
1 -116 -8 0 
1 -79 -26 0 
1 -57 -176 0 
1 -152 -168 0 
1 51 59 0 
1 50 138 0 
1 153 117 0 
1 -177 -43 0 
1 -61 32 0 
1 39 62 0 
1 -170 96 0 
1 89 -143 0 
1 -114 118 0 
1 110 123 0 
1 -18 -14 0 
1 74 150 0 
1 -133 57 0 
1 46 74 0 
1 -133 -66 0 
1 -143 8 0 
1 73 176 0 
1 -65 140 0 
1 -36 -107 0 
1 12 -5 0 
1 -169 56 0 
1 -3 -140 0 
1 -142 -59 0 
1 -120 -145 0 
1 -159 -122 0 
1 122 -65 0 
1 81 -9 0 
1 -157 169 0 
1 91 -29 0 
1 25 -178 0 
1 175 141 0 
1 -72 -2 0 
1 -30 -164 0 
1 -66 19 0 
1 178 174 0 
1 -91 33 0 
1 40 -25 0 
1 83 88 0 
1 75 -124 0 
1 13 -157 0 
1 -69 -105 0 
1 -145 88 0 
1 -157 -32 0 
1 -99 -35 0 
1 18 144 0 
1 102 -141 0 
1 54 -8 0 
1 126 -36 0 
1 -152 -117 0 
1 88 -145 0 
1 29 -103 0 
1 151 112 0 
1 174 22 0 
1 21 52 0 
1 -23 144 0 
1 92 -165 0 
1 6 -14 0 
1 55 86 0 
1 176 -42 0 
1 -125 -168 0 
1 22 111 0 
1 160 -106 0 
1 -25 -77 0 
1 20 94 0 
1 100 151 0 
